NAME: rat99
COMMENT: Local search tour for rat99 (1393.8754603777193)
TYPE: TOUR
DIMENSION: 99
TOUR_SECTION: 1 10 20 19 28 37 38 48 39 40 50 60 49 58 59 67 68 75 74 66 65 56 57 47 46 55 64 73 84 85 76 77 78 79 88 87 86 95 83 82 91 92 93 94 96 97 98 99 90 89 81 72 80 71 70 69 61 62 63 54 45 53 52 51 42 43 34 44 36 35 33 41 32 31 29 30 21 22 13 15 16 23 24 25 26 27 17 18 9 8 7 6 5 14 4 3 12 11 2 -1
EOF